unknown
(model
; cardinality of BoundSet is 2
(declare-sort BoundSet 0)
; rep: @uc_BoundSet_0
; rep: @uc_BoundSet_1
(declare-sort UnboundSet 0)
(define-fun IsImprisoned ((BOUND_VARIABLE_355 BoundSet)) Bool true)
(define-fun EmbezzledMoney ((BOUND_VARIABLE_355 BoundSet)) Bool true)
(define-fun IsDishonest ((BOUND_VARIABLE_355 BoundSet)) Bool false)
)
